HFSDDW
15	6	2
0	17	1	66
0	87	1	91
0	63	1	87
0	74	1	69
0	54	1	48
0	44	1	94
0	88	1	79
0	82	1	80
0	9	1	59
0	35	1	45
0	21	1	14
0	4	1	19
0	56	1	10
0	48	1	81
0	18	1	32
LBCmax: 302
RELDUE
-1	144	8	9
-1	149	8	2
-1	110	9	5
-1	136	4	7
-1	136	6	4
-1	121	1	6
-1	123	7	4
-1	132	5	4
-1	129	9	5
-1	100	3	6
-1	149	5	6
-1	135	2	1
-1	138	3	3
-1	107	4	9
-1	144	2	5
DDW
130	158
137	161
92	128
126	146
116	156
119	123
106	140
114	150
124	134
83	117
133	165
128	142
117	159
98	116
122	166
